p cnf 74 246
30 31 32 33 34 35 0
36 37 38 39 40 41 42 43 44 0
54 55 56 57 58 59 0
60 61 62 63 64 65 66 67 68 0
-1 -6 0
-1 -13 0
-1 -22 0
-1 -30 0
-1 -36 0
-1 -45 0
-1 -69 0
-6 -13 0
-6 -22 0
-6 -30 0
-6 -36 0
-6 -45 0
-6 -69 0
-13 -22 0
-13 -30 0
-13 -36 0
-13 -45 0
-13 -69 0
-22 -30 0
-22 -36 0
-22 -45 0
-22 -69 0
-30 -36 0
-30 -45 0
-30 -69 0
-36 -45 0
-36 -69 0
-45 -69 0
-2 -7 0
-2 -14 0
-2 -37 0
-2 -46 0
-2 -54 0
-2 -60 0
-7 -14 0
-7 -37 0
-7 -46 0
-7 -54 0
-7 -60 0
-14 -37 0
-14 -46 0
-14 -54 0
-14 -60 0
-37 -46 0
-37 -54 0
-37 -60 0
-46 -54 0
-46 -60 0
-54 -60 0
-8 -15 0
-8 -23 0
-8 -31 0
-8 -47 0
-8 -55 0
-8 -61 0
-15 -23 0
-15 -31 0
-15 -47 0
-15 -55 0
-15 -61 0
-23 -31 0
-23 -47 0
-23 -55 0
-23 -61 0
-31 -47 0
-31 -55 0
-31 -61 0
-47 -55 0
-47 -61 0
-55 -61 0
-3 -9 0
-3 -16 0
-3 -24 0
-3 -38 0
-3 -48 0
-3 -56 0
-3 -62 0
-9 -16 0
-9 -24 0
-9 -38 0
-9 -48 0
-9 -56 0
-9 -62 0
-16 -24 0
-16 -38 0
-16 -48 0
-16 -56 0
-16 -62 0
-24 -38 0
-24 -48 0
-24 -56 0
-24 -62 0
-38 -48 0
-38 -56 0
-38 -62 0
-48 -56 0
-48 -62 0
-56 -62 0
-10 -17 0
-10 -25 0
-10 -32 0
-10 -39 0
-10 -49 0
-10 -57 0
-10 -63 0
-10 -70 0
-17 -25 0
-17 -32 0
-17 -39 0
-17 -49 0
-17 -57 0
-17 -63 0
-17 -70 0
-25 -32 0
-25 -39 0
-25 -49 0
-25 -57 0
-25 -63 0
-25 -70 0
-32 -39 0
-32 -49 0
-32 -57 0
-32 -63 0
-32 -70 0
-39 -49 0
-39 -57 0
-39 -63 0
-39 -70 0
-49 -57 0
-49 -63 0
-49 -70 0
-57 -63 0
-57 -70 0
-63 -70 0
-18 -26 0
-18 -33 0
-18 -40 0
-18 -50 0
-18 -64 0
-18 -71 0
-26 -33 0
-26 -40 0
-26 -50 0
-26 -64 0
-26 -71 0
-33 -40 0
-33 -50 0
-33 -64 0
-33 -71 0
-40 -50 0
-40 -64 0
-40 -71 0
-50 -64 0
-50 -71 0
-64 -71 0
-4 -11 0
-4 -19 0
-4 -34 0
-4 -41 0
-4 -51 0
-4 -65 0
-4 -72 0
-11 -19 0
-11 -34 0
-11 -41 0
-11 -51 0
-11 -65 0
-11 -72 0
-19 -34 0
-19 -41 0
-19 -51 0
-19 -65 0
-19 -72 0
-34 -41 0
-34 -51 0
-34 -65 0
-34 -72 0
-41 -51 0
-41 -65 0
-41 -72 0
-51 -65 0
-51 -72 0
-65 -72 0
-27 -42 0
-27 -58 0
-27 -66 0
-27 -73 0
-42 -58 0
-42 -66 0
-42 -73 0
-58 -66 0
-58 -73 0
-66 -73 0
-20 -28 0
-20 -35 0
-20 -43 0
-20 -52 0
-20 -59 0
-20 -67 0
-20 -74 0
-28 -35 0
-28 -43 0
-28 -52 0
-28 -59 0
-28 -67 0
-28 -74 0
-35 -43 0
-35 -52 0
-35 -59 0
-35 -67 0
-35 -74 0
-43 -52 0
-43 -59 0
-43 -67 0
-43 -74 0
-52 -59 0
-52 -67 0
-52 -74 0
-59 -67 0
-59 -74 0
-67 -74 0
-5 -12 0
-5 -21 0
-5 -29 0
-5 -44 0
-5 -53 0
-5 -68 0
-12 -21 0
-12 -29 0
-12 -44 0
-12 -53 0
-12 -68 0
-21 -29 0
-21 -44 0
-21 -53 0
-21 -68 0
-29 -44 0
-29 -53 0
-29 -68 0
-44 -53 0
-44 -68 0
-53 -68 0
